
-2.76
-2.66
-2.52
-2.46
-2.38
-2.14
-2.02
-1.9
-1.72
-1.4
-1.1
-0.72
-0.64
-0.54
-0.48
-0.32
-0.26
-0.22
-0.2
-0.18
-0.18
-0.18
-0.18
-0.18
-0.18
-0.18
-0.18
-0.18
-0.18
-0.18
-0.18
-0.18
-0.18
-0.18
-0.18